12
1 9
2 8
3 7
4 4
5 4
6 7
7 7
8 2
9 9
10 7
11 5
12 6
59
0 1 51
1 0 51
0 2 91
2 0 91
0 3 70
3 0 70
0 4 15
4 0 15
0 5 32
5 0 32
0 6 68
6 0 68
0 7 33
7 0 33
0 8 10
8 0 10
0 9 97
9 0 97
0 10 22
10 0 22
0 11 92
11 0 92
0 12 58
12 0 58
1 3 95
1 6 22
1 10 24
1 11 35
2 4 49
2 6 53
2 8 5
2 9 97
2 10 5
2 12 29
3 4 82
3 6 88
3 8 85
3 11 1
4 6 58
4 8 25
4 9 15
4 10 19
4 12 85
5 7 1
5 9 99
6 7 91
6 8 50
6 9 62
6 10 16
6 11 27
7 8 90
7 12 38
8 10 89
8 11 52
9 10 66
9 11 18
10 11 65
10 12 52
11 12 10
